NAME : pr439.131135.tour
COMMENT : Length = 131135
COMMENT : Found by LKH [Keld Helsgaun] Mon Nov 19 07:48:43 2018
TYPE : TOUR
DIMENSION : 443
TOUR_SECTION
1
39
38
58
78
59
60
61
76
75
74
73
63
64
65
66
67
68
69
70
71
72
88
89
90
91
102
92
93
94
100
101
120
117
115
116
118
119
121
122
123
125
129
127
126
124
137
136
135
134
163
162
160
161
175
176
200
201
202
203
205
204
174
173
172
206
207
208
171
170
168
169
166
164
165
167
133
132
131
130
128
99
98
97
96
95
18
19
20
21
22
24
23
25
26
27
28
29
30
31
32
443
3
2
49
46
45
43
41
40
42
44
47
48
55
56
82
81
80
79
57
37
36
35
34
33
17
16
15
14
13
12
11
10
9
8
7
6
5
4
440
83
84
85
149
186
226
227
228
283
229
282
281
230
341
342
343
344
284
439
435
436
437
438
434
403
408
409
411
410
425
426
424
427
430
433
432
422
423
412
413
396
397
398
393
395
394
384
382
383
372
371
373
374
375
381
391
392
399
407
406
421
420
419
414
390
389
379
380
376
377
350
351
353
355
356
358
359
357
354
352
349
347
348
346
345
340
287
286
285
280
232
231
225
188
187
53
54
50
51
52
442
189
288
289
290
291
292
293
279
278
277
276
275
274
273
300
299
298
297
296
295
294
339
338
337
336
335
334
333
366
365
364
363
362
361
360
370
369
368
367
378
385
386
387
388
401
400
415
416
431
429
428
418
417
405
404
402
317
318
319
320
321
322
323
324
325
326
327
328
329
331
332
330
303
301
302
304
305
306
265
266
267
268
269
270
271
272
233
223
224
190
185
145
148
147
146
112
111
110
87
86
441
62
109
108
107
106
105
104
103
114
113
143
152
142
141
140
139
138
158
159
177
178
199
198
197
196
195
194
193
221
220
219
218
217
216
215
214
213
212
211
210
250
251
209
253
252
255
254
316
315
314
313
312
311
310
309
308
307
264
263
262
261
260
259
258
257
256
249
248
247
246
245
244
243
242
241
240
239
238
237
236
235
234
222
191
184
192
183
182
181
180
179
157
156
155
154
153
151
150
144
77
-1
EOF
